n=20;
demand=2;
horizon=20;
est=[7,6,15,14,16,11,5,11,0,1,19,14,8,4,17,15,0,6,12,12];
processing_time=[11,2,2,6,1,6,7,7,16,1,1,3,3,6,3,3,13,8,3,1];
lct=[19,20,20,20,17,20,15,20,20,14,20,18,17,15,20,19,16,19,20,13];
